19 27 48 53 13 58 2 84 96 14 82 79 71 29 31 16 59 68 81 47 11 66 75 35 12 92 22 6 36 85 0 91 72 70 95 5 97 55 94 56 69 44 38 26 10 21 51 98 7 23 57 77 88 63 99 18 90 15 4 17 24 39 1 76 9 33 25 62 93 86 83 74 52 3 28 46 40 50 45 37 78 42 30 41 32 60 61 64 87 89 49 43 73 54 67 80 20 65 8 34 

